data;
param T := 13000;
param N := 17;
param W := 
[0] 3026
[1] 1740
[2] 6190
[3] 6364
[4] 8237
[5] 6195
[6] 270
[7] 5638
[8] 5374
[9] 5884
[10] 363
[11] 3475
[12] 9487
[13] 364
[14] 7722
[15] 2174
[16] 1522
;
end;